data;


param d:= 100;
param r:=5;
param p:=0.820000;
param M:=1000;
param U:=
         1         1       -4.325751e-02
         2         1        3.744940e-01
         3         1       -8.956332e-01
         4         1       -7.985609e-01
         5         1       -1.188727e-01
         6         1       -3.697522e-02
         7         1        9.884706e-01
         8         1        1.984262e-01
         9         1       -2.133855e+00
        10         1       -3.681878e-01
        11         1        1.278265e+00
        12         1        9.653334e-01
        13         1       -1.791728e+00
        14         1        3.122041e-01
        15         1       -1.460131e+00
        16         1        2.148728e-01
        17         1        2.591020e+00
        18         1        3.201853e-01
        19         1        1.181790e+00
        20         1        6.171113e-01
        21         1       -4.428735e-01
        22         1        5.592293e-02
        23         1       -4.389663e-01
        24         1        7.324018e-01
        25         1       -5.166171e-01
        26         1        1.040620e+00
        27         1       -7.724839e-01
        28         1       -7.949744e-01
        29         1       -1.224354e+00
        30         1        3.863311e-02
        31         1       -8.500384e-01
        32         1       -2.450890e-01
        33         1       -1.145759e+00
        34         1       -1.199514e+00
        35         1       -1.050421e+00
        36         1        1.362611e+00
        37         1        1.129167e+00
        38         1        1.773969e+00
        39         1       -1.544248e+00
        40         1        7.129763e-01
        41         1       -4.862355e-01
        42         1        1.669675e-01
        43         1        8.027202e-01
        44         1        3.512750e-02
        45         1        9.018465e-02
        46         1        1.072439e+00
        47         1        1.841884e+00
        48         1       -7.132051e-02
        49         1       -1.589776e+00
        50         1        5.250428e-01
        51         1        1.769767e+00
        52         1       -8.888528e-01
        53         1        6.870322e-01
        54         1        7.491465e-01
        55         1        1.644052e-01
        56         1        2.603164e-02
        57         1        2.020647e+00
        58         1        1.672888e+00
        59         1       -7.211463e-01
        60         1        6.875358e-01
        61         1       -1.540926e+00
        62         1       -9.678809e-01
        63         1        3.674900e-01
        64         1        2.547041e+00
        65         1        8.720686e-01
        66         1       -3.813373e-01
        67         1       -1.194553e+00
        68         1       -9.528980e-01
        69         1       -2.183626e-01
        70         1        2.139051e+00
        71         1       -1.294229e-01
        72         1       -2.850726e-01
        73         1       -3.027850e-01
        74         1        2.394588e+00
        75         1       -4.152244e-01
        76         1        3.074823e-02
        77         1        1.050834e+00
        78         1       -2.188218e-01
        79         1       -7.388695e-01
        80         1        1.181888e+00
        81         1       -8.547194e-01
        82         1       -6.635046e-01
        83         1        2.042481e+00
        84         1       -7.095357e-01
        85         1       -1.662199e+00
        86         1        1.814609e+00
        87         1       -2.023223e+00
        88         1       -1.125607e+00
        89         1       -2.575592e-01
        90         1        1.052550e+00
        91         1        2.107343e-01
        92         1        1.003859e+00
        93         1        1.886010e-01
        94         1        2.799064e-01
        95         1        1.360025e-02
        96         1       -5.094655e-02
        97         1       -4.152930e-01
        98         1       -3.151941e-02
        99         1        3.622228e-01
       100         1        1.592276e+00
         1         2        1.487727e-01
         2         2       -3.797097e-01
         3         2       -2.869663e-02
         4         2        1.423380e+00
         5         2        5.632743e-01
         6         2       -5.185545e-01
         7         2       -1.234456e+00
         8         2       -1.391230e-01
         9         2       -1.166966e+00
        10         2       -3.537245e-01
        11         2        1.205034e-01
        12         2        1.362379e-01
        13         2       -9.845054e-01
        14         2       -4.357192e-01
        15         2       -1.215693e+00
        16         2        1.038789e+00
        17         2        1.768188e+00
        18         2       -1.003375e+00
        19         2       -4.016742e-01
        20         2       -3.447953e-01
        21         2       -3.409819e-01
        22         2       -1.433273e+00
        23         2       -2.704194e-01
        24         2        4.089093e-02
        25         2        1.436273e+00
        26         2       -1.316740e+00
        27         2       -7.611496e-01
        28         2       -1.396613e+00
        29         2        8.398635e-01
        30         2        3.612089e-01
        31         2       -4.371351e-01
        32         2        1.162075e-01
        33         2       -1.753621e+00
        34         2       -9.539661e-01
        35         2       -4.202714e-01
        36         2        4.943840e-01
        37         2       -1.167214e+00
        38         2       -1.835062e+00
        39         2        3.090437e-01
        40         2       -1.148825e+00
        41         2        2.064587e-01
        42         2       -6.194594e-02
        43         2       -2.798314e-01
        44         2        2.267457e+00
        45         2       -8.153389e-01
        46         2       -1.167637e+00
        47         2        3.618220e-01
        48         2       -1.743634e+00
        49         2        5.847029e-01
        50         2       -9.321939e-01
        51         2       -7.717210e-02
        52         2       -1.023664e+00
        53         2       -1.347739e-01
        54         2        9.088064e-02
        55         2        1.562585e+00
        56         2        8.267684e-01
        57         2       -5.049723e-01
        58         2       -4.207035e-01
        59         2        8.221885e-01
        60         2        6.237736e-01
        61         2        1.904246e+00
        62         2       -3.160785e-01
        63         2       -2.164461e-01
        64         2        4.389929e-02
        65         2        4.317385e-01
        66         2       -3.199246e-01
        67         2       -2.217352e-02
        68         2       -8.118731e-01
        69         2        7.713809e-01
        70         2       -1.738499e-01
        71         2        1.829323e+00
        72         2        1.037840e+00
        73         2        1.278410e+00
        74         2       -5.666504e-01
        75         2       -1.295347e+00
        76         2       -4.869950e-01
        77         2       -1.242797e-01
        78         2        9.335151e-01
        79         2        6.733062e-02
        80         2       -4.526138e-01
        81         2       -1.197917e+00
        82         2       -8.482543e-01
        83         2       -5.804466e-01
        84         2       -2.823882e-01
        85         2       -4.852484e-01
        86         2        7.346636e-01
        87         2       -3.387844e-01
        88         2        9.682505e-01
        89         2       -8.526908e-01
        90         2        1.019562e+00
        91         2        1.615772e+00
        92         2        9.986069e-01
        93         2        8.297420e-02
        94         2       -8.140285e-01
        95         2        1.348481e+00
        96         2       -1.530600e-01
        97         2       -3.403310e-01
        98         2       -1.654156e+00
        99         2       -2.797677e-01
       100         2       -9.200244e-02
         1         3        1.437217e+00
         2         3        7.132757e-01
         3         3       -6.702678e-01
         4         3        2.225733e-01
         5         3        5.905385e-01
         6         3       -6.968131e-01
         7         3        1.733881e+00
         8         3       -1.065652e+00
         9         3       -5.417159e-01
        10         3        7.959367e-01
        11         3       -2.174452e-01
        12         3       -9.448687e-01
        13         3        6.895995e-01
        14         3       -4.261529e-01
        15         3       -1.883148e+00
        16         3        2.762733e+00
        17         3        6.648444e-03
        18         3        5.621290e-01
        19         3        1.064490e+00
        20         3        1.740528e-01
        21         3       -3.543209e-01
        22         3        4.129380e-01
        23         3        6.629037e-01
        24         3       -1.867854e+00
        25         3       -1.621221e+00
        26         3       -1.116505e+00
        27         3        1.827194e+00
        28         3        1.741010e-01
        29         3        1.354769e+00
        30         3       -1.046339e+00
        31         3        7.311787e-01
        32         3       -1.710424e+00
        33         3       -7.648112e-01
        34         3       -3.493350e+00
        35         3       -3.885124e-02
        36         3       -3.920818e-01
        37         3        2.493156e-01
        38         3        1.088125e+00
        39         3        2.124774e+00
        40         3        1.507120e+00
        41         3       -2.270611e+00
        42         3        1.711719e-01
        43         3        1.829313e-01
        44         3       -2.509194e-01
        45         3       -5.531874e-02
        46         3        3.655621e-01
        47         3       -3.419329e-01
        48         3       -6.585171e-01
        49         3       -1.347244e+00
        50         3        3.287483e-01
        51         3       -5.283592e-01
        52         3       -2.882763e-01
        53         3       -5.441806e-01
        54         3       -1.020466e+00
        55         3       -6.606915e-01
        56         3        1.254304e+00
        57         3        6.793622e-01
        58         3        4.082821e-01
        59         3       -1.539577e+00
        60         3       -5.712233e-01
        61         3        2.594125e-01
        62         3        1.084736e+00
        63         3       -4.036806e-01
        64         3        2.005124e-02
        65         3       -4.397789e-01
        66         3       -1.739785e+00
        67         3        1.171447e+00
        68         3       -1.564170e+00
        69         3        6.924295e-01
        70         3        7.803060e-01
        71         3        2.886221e-01
        72         3       -2.352602e+00
        73         3       -9.056976e-01
        74         3       -1.326954e+00
        75         3        1.359872e+00
        76         3       -1.725900e+00
        77         3       -1.353814e+00
        78         3        1.170339e+00
        79         3        1.462072e+00
        80         3       -2.013065e+00
        81         3        5.695569e-01
        82         3       -8.382275e-01
        83         3        6.282992e-01
        84         3       -7.548430e-01
        85         3        7.138026e-01
        86         3        2.001628e+00
        87         3        9.216686e-01
        88         3        6.422198e-01
        89         3       -2.018109e-01
        90         3       -2.626351e-01
        91         3        8.583666e-01
        92         3        2.917040e+00
        93         3       -7.470699e-01
        94         3        9.005225e-01
        95         3       -3.324157e-01
        96         3       -1.942256e+00
        97         3       -1.545121e-01
        98         3       -2.625265e+00
        99         3       -5.758020e-01
       100         3        1.494127e+00
         1         4       -3.797703e-01
         2         4       -6.245456e-01
         3         4        1.184594e-01
         4         4       -4.563933e-01
         5         4        1.325487e+00
         6         4       -1.447309e+00
         7         4        2.940863e-02
         8         4        9.455917e-02
         9         4        2.473777e-01
        10         4       -2.067814e-01
        11         4        5.088633e-01
        12         4       -1.152723e+00
        13         4       -4.216322e-01
        14         4        5.421003e-01
        15         4       -6.281286e-02
        16         4        7.649417e-01
        17         4        1.584945e+00
        18         4       -1.727824e-01
        19         4       -3.892988e-01
        20         4        1.192224e+00
        21         4       -2.214613e-01
        22         4        1.518647e+00
        23         4       -1.693718e+00
        24         4        7.916167e-01
        25         4       -8.896098e-02
        26         4       -4.229939e-01
        27         4       -6.168912e-01
        28         4        5.541533e-01
        29         4       -3.770291e-02
        30         4       -5.992435e-01
        31         4        5.229664e-01
        32         4       -1.117583e+00
        33         4        3.431267e-01
        34         4        1.030796e+00
        35         4       -8.488634e-01
        36         4        3.163714e-01
        37         4       -5.986955e-01
        38         4       -1.985379e+00
        39         4        1.593641e+00
        40         4       -7.101833e-01
        41         4        4.818427e-01
        42         4       -1.502773e+00
        43         4        1.467091e+00
        44         4        5.334797e-01
        45         4       -1.030705e+00
        46         4        5.014869e-01
        47         4        3.656138e-01
        48         4       -1.195554e+00
        49         4       -2.055829e+00
        50         4       -4.874595e-01
        51         4        7.907903e-01
        52         4        6.852066e-01
        53         4       -6.302925e-01
        54         4        1.028539e+00
        55         4       -1.220441e+00
        56         4        2.503960e-02
        57         4        1.142842e+00
        58         4        6.025954e-01
        59         4       -6.276746e-01
        60         4        4.926809e-01
        61         4       -1.926382e-01
        62         4        1.378620e+00
        63         4        1.680765e+00
        64         4        2.178622e-01
        65         4       -9.763508e-01
        66         4        2.919772e-01
        67         4       -3.712376e-01
        68         4       -2.341276e-02
        69         4        8.732747e-01
        70         4       -1.618536e+00
        71         4        8.193915e-01
        72         4        3.084101e-01
        73         4       -2.209061e+00
        74         4        2.646024e-01
        75         4        1.876960e+00
        76         4        2.323040e-02
        77         4        8.143059e-01
        78         4       -5.958168e-02
        79         4        3.891910e-01
        80         4       -2.001009e+00
        81         4        1.156278e+00
        82         4        4.638988e-01
        83         4        1.259330e+00
        84         4        6.834353e-02
        85         4        1.448925e+00
        86         4       -1.838814e+00
        87         4        3.897111e-01
        88         4       -3.520604e-01
        89         4        5.971158e-01
        90         4       -3.362459e-01
        91         4        2.775095e-01
        92         4       -8.298711e-01
        93         4        6.146407e-01
        94         4        2.522903e-01
        95         4        5.840348e-01
        96         4        4.768866e-01
        97         4        1.000488e+00
        98         4       -5.462727e-01
        99         4        1.197076e-01
       100         4       -1.255375e+00
         1         5       -6.158621e-02
         2         5       -8.286560e-01
         3         5       -1.329045e+00
         4         5        5.952547e-01
         5         5        1.055384e+00
         6         5        3.501633e-01
         7         5        1.046087e+00
         8         5       -8.813031e-01
         9         5        4.803113e-01
        10         5       -4.984684e-01
        11         5        1.409302e-01
        12         5        6.887776e-01
        13         5       -5.306986e-01
        14         5        4.183485e-01
        15         5        4.806398e-01
        16         5       -1.339968e+00
        17         5       -3.475301e-01
        18         5       -4.334561e-01
        19         5       -1.887321e-02
        20         5       -7.607405e-01
        21         5       -1.139555e+00
        22         5        1.602139e+00
        23         5        4.539851e-01
        24         5        4.789667e-01
        25         5        7.672461e-01
        26         5        1.800989e+00
        27         5        1.553063e+00
        28         5        1.377629e+00
        29         5       -1.168414e+00
        30         5        5.424227e-01
        31         5       -3.582767e-01
        32         5       -1.335149e+00
        33         5       -9.341633e-01
        34         5       -1.409763e+00
        35         5       -1.444834e+00
        36         5        6.694723e-02
        37         5       -3.038085e-01
        38         5       -1.321788e-01
        39         5        5.772002e-01
        40         5        1.759132e+00
        41         5       -7.906814e-01
        42         5       -3.269247e-01
        43         5       -1.260005e+00
        44         5        1.962533e-01
        45         5       -1.185851e-01
        46         5        3.987231e-01
        47         5        9.172001e-02
        48         5       -1.065680e-01
        49         5        2.997166e-03
        50         5       -1.432739e+00
        51         5        2.396913e+00
        52         5       -1.488226e+00
        53         5        2.111482e+00
        54         5        4.909712e-01
        55         5       -3.222096e-01
        56         5       -8.283335e-01
        57         5       -1.594308e+00
        58         5        1.405304e+00
        59         5       -5.502828e-01
        60         5       -3.131392e-01
        61         5        1.126755e-01
        62         5        1.086939e-01
        63         5        4.332631e-01
        64         5       -1.548086e+00
        65         5       -2.739428e-01
        66         5       -2.468534e-01
        67         5       -2.396830e-01
        68         5        5.574816e-01
        69         5       -2.502503e-01
        70         5       -5.850310e-01
        71         5        2.230907e+00
        72         5       -1.106087e+00
        73         5        1.198146e-01
        74         5       -4.270444e-01
        75         5       -2.123037e+00
        76         5       -6.011179e-01
        77         5        2.025996e-01
        78         5        6.143215e-01
        79         5        1.122279e+00
        80         5       -8.500737e-01
        81         5       -8.412332e-01
        82         5        6.105445e-01
        83         5       -5.252597e-01
        84         5        4.102144e-01
        85         5        2.924652e-01
        86         5        6.222848e-01
        87         5        7.005776e-01
        88         5        2.294128e-01
        89         5       -1.964493e-01
        90         5        4.254530e-01
        91         5       -4.939741e-01
        92         5       -1.244391e+00
        93         5        1.842319e+00
        94         5        1.700384e-01
        95         5       -6.443929e-01
        96         5        7.606964e-01
        97         5       -1.048195e+00
        98         5        2.107032e-01
        99         5       -1.095175e+00
       100         5       -7.495931e-01
;

param theta:=
    1       -2.402926e-01
    2       -3.372793e-01
    3       -1.207849e+00
    4       -6.032492e-01
    5       -1.284107e-01
;
param X_true:=
    1       -1.537663e+00
    2       -3.409163e-01
    3        1.133692e+00
    4       -3.582332e-01
    5       -1.808999e+00
    6        1.852934e+00
    7       -2.065875e+00
    8        1.340483e+00
    9        1.350753e+00
   10       -5.634984e-01
   11       -4.095514e-01
   12        1.469513e+00
   13        2.514691e-01
   14        2.074386e-01
   15        3.011411e+00
   16       -4.028079e+00
   17       -2.140522e+00
   18       -2.576519e-01
   19       -1.198452e+00
   20       -8.648366e-01
   21        9.293295e-01
   22       -1.149654e+00
   23        3.594923e-01
   24        1.528761e+00
   25        1.553673e+00
   26        1.566662e+00
   27       -1.592425e+00
   28       -5.800016e-02
   29       -1.453167e+00
   30        1.424819e+00
   31       -7.995427e-01
   32        2.930813e+00
   33        1.702865e+00
   34        4.390257e+00
   35        1.140951e+00
   36       -2.200277e-01
   37        2.199247e-01
   38        9.395455e-02
   39       -3.334591e+00
   40       -1.402003e+00
   41        2.602151e+00
   42        7.233629e-01
   43       -1.042406e+00
   44       -8.184661e-01
   45        9.568019e-01
   46       -6.604867e-01
   47       -3.845439e-01
   48        2.135791e+00
   49        3.052905e+00
   50        2.665890e-01
   51       -5.460318e-01
   52        6.850236e-01
   53        6.467326e-01
   54        3.338594e-01
   55        1.008764e+00
   56       -1.707087e+00
   57       -1.619462e+00
   58       -1.297204e+00
   59        2.203356e+00
   60        5.589053e-02
   61       -4.830496e-01
   62       -1.816250e+00
   63       -5.968070e-01
   64       -5.827710e-01
   65        7.992460e-01
   66        2.157591e+00
   67       -8.670174e-01
   68        2.333575e+00
   69       -1.539641e+00
   70       -3.473810e-01
   71       -1.714776e+00
   72        2.517165e+00
   73        2.050825e+00
   74        1.113068e+00
   75       -1.965269e+00
   76        2.305939e+00
   77        9.076871e-01
   78       -1.718427e+00
   79       -1.988502e+00
   80        3.616756e+00
   81       -6.683518e-01
   82        1.100596e+00
   83       -1.747189e+00
   84        1.082243e+00
   85       -1.212036e+00
   86       -2.073418e+00
   87       -8.362574e-01
   88       -6.492802e-01
   89        2.576378e-01
   90       -1.302284e-01
   91       -1.735557e+00
   92       -3.440457e+00
   93        2.211482e-01
   94       -1.054968e+00
   95       -3.273445e-01
   96        2.024683e+00
   97       -6.715646e-02
   98        4.036641e+00
   99        7.711073e-01
  100       -1.303876e+00
;
param X:=
    1        1.038972e+00
    2        2.357743e-01
    3        2.181662e+00
    4       -1.079696e+00
    5       -6.578412e-01
    6       -2.586558e-01
    7       -4.522160e-01
    8        1.340483e+00
    9        1.350753e+00
   10       -1.226924e+00
   11        9.091922e-01
   12        1.483804e+00
   13       -2.197377e-01
   14       -1.395123e-01
   15       -7.835577e-01
   16       -3.062579e-02
   17        6.481865e-01
   18        1.247882e-01
   19       -1.198452e+00
   20       -6.157933e-01
   21       -1.685404e-01
   22        1.260563e+00
   23        1.002236e+00
   24        9.712233e-01
   25        9.566206e-02
   26        5.506071e-01
   27       -1.592425e+00
   28       -1.309136e+00
   29       -6.549972e-01
   30       -1.105296e+00
   31        4.057612e-01
   32        1.170768e+00
   33       -3.188391e-01
   34        4.451976e-01
   35        1.140951e+00
   36       -6.082124e-01
   37       -1.597819e+00
   38       -6.259294e-01
   39       -7.469278e-01
   40        5.646630e-01
   41       -2.204538e-01
   42        1.386546e-01
   43       -1.042406e+00
   44        7.063282e-01
   45        9.568019e-01
   46       -6.604867e-01
   47       -1.348671e+00
   48        8.345401e-01
   49       -9.682770e-01
   50       -1.241886e+00
   51       -1.237977e+00
   52        6.016080e-01
   53       -4.459136e-01
   54       -5.869245e-01
   55       -1.688693e-02
   56        5.767289e-01
   57       -1.619462e+00
   58        4.042235e-01
   59        1.049498e+00
   60        6.462702e-01
   61        1.767261e-02
   62       -1.816250e+00
   63        2.957763e-01
   64        3.018035e+00
   65        1.448111e+00
   66        6.077032e-01
   67       -9.938877e-01
   68        1.126168e+00
   69        1.022676e-01
   70       -3.296249e-02
   71       -1.611599e-02
   72        2.517165e+00
   73        2.050825e+00
   74        3.567559e-01
   75       -1.965269e+00
   76       -1.347058e+00
   77        3.867093e-02
   78       -1.718427e+00
   79       -1.988502e+00
   80        1.589523e+00
   81        1.729293e+00
   82        7.599722e-01
   83       -1.916074e-01
   84        1.756524e+00
   85       -3.201301e-01
   86       -2.073418e+00
   87       -8.362574e-01
   88        3.488575e-01
   89        1.488665e+00
   90       -1.453735e+00
   91       -1.512179e+00
   92       -1.313292e+00
   93       -1.125975e+00
   94       -3.673539e-01
   95        1.971231e-01
   96       -1.594838e-01
   97        1.951400e+00
   98        4.036641e+00
   99        9.326784e-03
  100       -2.307801e+00
;
param outliervec:=
    1    1
    2    1
    3    1
    4    1
    5    1
    6    1
    7    1
    8    0
    9    0
   10    1
   11    1
   12    1
   13    1
   14    1
   15    1
   16    1
   17    1
   18    1
   19    0
   20    1
   21    1
   22    1
   23    1
   24    1
   25    1
   26    1
   27    0
   28    1
   29    1
   30    1
   31    1
   32    1
   33    1
   34    1
   35    0
   36    1
   37    1
   38    1
   39    1
   40    1
   41    1
   42    1
   43    0
   44    1
   45    0
   46    0
   47    1
   48    1
   49    1
   50    1
   51    1
   52    1
   53    1
   54    1
   55    1
   56    1
   57    0
   58    1
   59    1
   60    1
   61    1
   62    0
   63    1
   64    1
   65    1
   66    1
   67    1
   68    1
   69    1
   70    1
   71    1
   72    0
   73    0
   74    1
   75    0
   76    1
   77    1
   78    0
   79    0
   80    1
   81    1
   82    1
   83    1
   84    1
   85    1
   86    0
   87    0
   88    1
   89    1
   90    1
   91    1
   92    1
   93    1
   94    1
   95    1
   96    1
   97    1
   98    0
   99    1
  100    1
;